c turning on binary mode checking
c parsing input formula with 259840 variables and 1039924 clauses
c finished parsing, read 22041011 bytes from proof file
c detected empty clause; start verification via backward checking
c 6345 of 1039924 clauses in core                            
c 2892 of 564842 lemmas in core using 75099 resolution steps
c 0 RAT lemmas in core; 415 redundant literals in core lemmas
s VERIFIED
c verification time: 2.565 seconds
